p cnf 71 1274
1 2 3 4 0
2 3 4 5 0
3 4 5 6 0
4 5 6 7 0
5 6 7 8 0
6 7 8 9 0
7 8 9 10 0
8 9 10 11 0
9 10 11 12 0
10 11 12 13 0
11 12 13 14 0
12 13 14 15 0
13 14 15 16 0
14 15 16 17 0
15 16 17 18 0
16 17 18 19 0
17 18 19 20 0
18 19 20 21 0
19 20 21 22 0
20 21 22 23 0
21 22 23 24 0
22 23 24 25 0
23 24 25 26 0
24 25 26 27 0
25 26 27 28 0
26 27 28 29 0
27 28 29 30 0
28 29 30 31 0
29 30 31 32 0
30 31 32 33 0
31 32 33 34 0
32 33 34 35 0
33 34 35 36 0
34 35 36 37 0
35 36 37 38 0
36 37 38 39 0
37 38 39 40 0
38 39 40 41 0
39 40 41 42 0
40 41 42 43 0
41 42 43 44 0
42 43 44 45 0
43 44 45 46 0
44 45 46 47 0
45 46 47 48 0
46 47 48 49 0
47 48 49 50 0
48 49 50 51 0
49 50 51 52 0
50 51 52 53 0
51 52 53 54 0
52 53 54 55 0
53 54 55 56 0
54 55 56 57 0
55 56 57 58 0
56 57 58 59 0
57 58 59 60 0
58 59 60 61 0
59 60 61 62 0
60 61 62 63 0
61 62 63 64 0
62 63 64 65 0
63 64 65 66 0
64 65 66 67 0
65 66 67 68 0
66 67 68 69 0
67 68 69 70 0
68 69 70 71 0
1 3 5 7 0
2 4 6 8 0
3 5 7 9 0
4 6 8 10 0
5 7 9 11 0
6 8 10 12 0
7 9 11 13 0
8 10 12 14 0
9 11 13 15 0
10 12 14 16 0
11 13 15 17 0
12 14 16 18 0
13 15 17 19 0
14 16 18 20 0
15 17 19 21 0
16 18 20 22 0
17 19 21 23 0
18 20 22 24 0
19 21 23 25 0
20 22 24 26 0
21 23 25 27 0
22 24 26 28 0
23 25 27 29 0
24 26 28 30 0
25 27 29 31 0
26 28 30 32 0
27 29 31 33 0
28 30 32 34 0
29 31 33 35 0
30 32 34 36 0
31 33 35 37 0
32 34 36 38 0
33 35 37 39 0
34 36 38 40 0
35 37 39 41 0
36 38 40 42 0
37 39 41 43 0
38 40 42 44 0
39 41 43 45 0
40 42 44 46 0
41 43 45 47 0
42 44 46 48 0
43 45 47 49 0
44 46 48 50 0
45 47 49 51 0
46 48 50 52 0
47 49 51 53 0
48 50 52 54 0
49 51 53 55 0
50 52 54 56 0
51 53 55 57 0
52 54 56 58 0
53 55 57 59 0
54 56 58 60 0
55 57 59 61 0
56 58 60 62 0
57 59 61 63 0
58 60 62 64 0
59 61 63 65 0
60 62 64 66 0
61 63 65 67 0
62 64 66 68 0
63 65 67 69 0
64 66 68 70 0
65 67 69 71 0
1 4 7 10 0
2 5 8 11 0
3 6 9 12 0
4 7 10 13 0
5 8 11 14 0
6 9 12 15 0
7 10 13 16 0
8 11 14 17 0
9 12 15 18 0
10 13 16 19 0
11 14 17 20 0
12 15 18 21 0
13 16 19 22 0
14 17 20 23 0
15 18 21 24 0
16 19 22 25 0
17 20 23 26 0
18 21 24 27 0
19 22 25 28 0
20 23 26 29 0
21 24 27 30 0
22 25 28 31 0
23 26 29 32 0
24 27 30 33 0
25 28 31 34 0
26 29 32 35 0
27 30 33 36 0
28 31 34 37 0
29 32 35 38 0
30 33 36 39 0
31 34 37 40 0
32 35 38 41 0
33 36 39 42 0
34 37 40 43 0
35 38 41 44 0
36 39 42 45 0
37 40 43 46 0
38 41 44 47 0
39 42 45 48 0
40 43 46 49 0
41 44 47 50 0
42 45 48 51 0
43 46 49 52 0
44 47 50 53 0
45 48 51 54 0
46 49 52 55 0
47 50 53 56 0
48 51 54 57 0
49 52 55 58 0
50 53 56 59 0
51 54 57 60 0
52 55 58 61 0
53 56 59 62 0
54 57 60 63 0
55 58 61 64 0
56 59 62 65 0
57 60 63 66 0
58 61 64 67 0
59 62 65 68 0
60 63 66 69 0
61 64 67 70 0
62 65 68 71 0
1 5 9 13 0
2 6 10 14 0
3 7 11 15 0
4 8 12 16 0
5 9 13 17 0
6 10 14 18 0
7 11 15 19 0
8 12 16 20 0
9 13 17 21 0
10 14 18 22 0
11 15 19 23 0
12 16 20 24 0
13 17 21 25 0
14 18 22 26 0
15 19 23 27 0
16 20 24 28 0
17 21 25 29 0
18 22 26 30 0
19 23 27 31 0
20 24 28 32 0
21 25 29 33 0
22 26 30 34 0
23 27 31 35 0
24 28 32 36 0
25 29 33 37 0
26 30 34 38 0
27 31 35 39 0
28 32 36 40 0
29 33 37 41 0
30 34 38 42 0
31 35 39 43 0
32 36 40 44 0
33 37 41 45 0
34 38 42 46 0
35 39 43 47 0
36 40 44 48 0
37 41 45 49 0
38 42 46 50 0
39 43 47 51 0
40 44 48 52 0
41 45 49 53 0
42 46 50 54 0
43 47 51 55 0
44 48 52 56 0
45 49 53 57 0
46 50 54 58 0
47 51 55 59 0
48 52 56 60 0
49 53 57 61 0
50 54 58 62 0
51 55 59 63 0
52 56 60 64 0
53 57 61 65 0
54 58 62 66 0
55 59 63 67 0
56 60 64 68 0
57 61 65 69 0
58 62 66 70 0
59 63 67 71 0
1 6 11 16 0
2 7 12 17 0
3 8 13 18 0
4 9 14 19 0
5 10 15 20 0
6 11 16 21 0
7 12 17 22 0
8 13 18 23 0
9 14 19 24 0
10 15 20 25 0
11 16 21 26 0
12 17 22 27 0
13 18 23 28 0
14 19 24 29 0
15 20 25 30 0
16 21 26 31 0
17 22 27 32 0
18 23 28 33 0
19 24 29 34 0
20 25 30 35 0
21 26 31 36 0
22 27 32 37 0
23 28 33 38 0
24 29 34 39 0
25 30 35 40 0
26 31 36 41 0
27 32 37 42 0
28 33 38 43 0
29 34 39 44 0
30 35 40 45 0
31 36 41 46 0
32 37 42 47 0
33 38 43 48 0
34 39 44 49 0
35 40 45 50 0
36 41 46 51 0
37 42 47 52 0
38 43 48 53 0
39 44 49 54 0
40 45 50 55 0
41 46 51 56 0
42 47 52 57 0
43 48 53 58 0
44 49 54 59 0
45 50 55 60 0
46 51 56 61 0
47 52 57 62 0
48 53 58 63 0
49 54 59 64 0
50 55 60 65 0
51 56 61 66 0
52 57 62 67 0
53 58 63 68 0
54 59 64 69 0
55 60 65 70 0
56 61 66 71 0
1 7 13 19 0
2 8 14 20 0
3 9 15 21 0
4 10 16 22 0
5 11 17 23 0
6 12 18 24 0
7 13 19 25 0
8 14 20 26 0
9 15 21 27 0
10 16 22 28 0
11 17 23 29 0
12 18 24 30 0
13 19 25 31 0
14 20 26 32 0
15 21 27 33 0
16 22 28 34 0
17 23 29 35 0
18 24 30 36 0
19 25 31 37 0
20 26 32 38 0
21 27 33 39 0
22 28 34 40 0
23 29 35 41 0
24 30 36 42 0
25 31 37 43 0
26 32 38 44 0
27 33 39 45 0
28 34 40 46 0
29 35 41 47 0
30 36 42 48 0
31 37 43 49 0
32 38 44 50 0
33 39 45 51 0
34 40 46 52 0
35 41 47 53 0
36 42 48 54 0
37 43 49 55 0
38 44 50 56 0
39 45 51 57 0
40 46 52 58 0
41 47 53 59 0
42 48 54 60 0
43 49 55 61 0
44 50 56 62 0
45 51 57 63 0
46 52 58 64 0
47 53 59 65 0
48 54 60 66 0
49 55 61 67 0
50 56 62 68 0
51 57 63 69 0
52 58 64 70 0
53 59 65 71 0
1 8 15 22 0
2 9 16 23 0
3 10 17 24 0
4 11 18 25 0
5 12 19 26 0
6 13 20 27 0
7 14 21 28 0
8 15 22 29 0
9 16 23 30 0
10 17 24 31 0
11 18 25 32 0
12 19 26 33 0
13 20 27 34 0
14 21 28 35 0
15 22 29 36 0
16 23 30 37 0
17 24 31 38 0
18 25 32 39 0
19 26 33 40 0
20 27 34 41 0
21 28 35 42 0
22 29 36 43 0
23 30 37 44 0
24 31 38 45 0
25 32 39 46 0
26 33 40 47 0
27 34 41 48 0
28 35 42 49 0
29 36 43 50 0
30 37 44 51 0
31 38 45 52 0
32 39 46 53 0
33 40 47 54 0
34 41 48 55 0
35 42 49 56 0
36 43 50 57 0
37 44 51 58 0
38 45 52 59 0
39 46 53 60 0
40 47 54 61 0
41 48 55 62 0
42 49 56 63 0
43 50 57 64 0
44 51 58 65 0
45 52 59 66 0
46 53 60 67 0
47 54 61 68 0
48 55 62 69 0
49 56 63 70 0
50 57 64 71 0
1 9 17 25 0
2 10 18 26 0
3 11 19 27 0
4 12 20 28 0
5 13 21 29 0
6 14 22 30 0
7 15 23 31 0
8 16 24 32 0
9 17 25 33 0
10 18 26 34 0
11 19 27 35 0
12 20 28 36 0
13 21 29 37 0
14 22 30 38 0
15 23 31 39 0
16 24 32 40 0
17 25 33 41 0
18 26 34 42 0
19 27 35 43 0
20 28 36 44 0
21 29 37 45 0
22 30 38 46 0
23 31 39 47 0
24 32 40 48 0
25 33 41 49 0
26 34 42 50 0
27 35 43 51 0
28 36 44 52 0
29 37 45 53 0
30 38 46 54 0
31 39 47 55 0
32 40 48 56 0
33 41 49 57 0
34 42 50 58 0
35 43 51 59 0
36 44 52 60 0
37 45 53 61 0
38 46 54 62 0
39 47 55 63 0
40 48 56 64 0
41 49 57 65 0
42 50 58 66 0
43 51 59 67 0
44 52 60 68 0
45 53 61 69 0
46 54 62 70 0
47 55 63 71 0
1 10 19 28 0
2 11 20 29 0
3 12 21 30 0
4 13 22 31 0
5 14 23 32 0
6 15 24 33 0
7 16 25 34 0
8 17 26 35 0
9 18 27 36 0
10 19 28 37 0
11 20 29 38 0
12 21 30 39 0
13 22 31 40 0
14 23 32 41 0
15 24 33 42 0
16 25 34 43 0
17 26 35 44 0
18 27 36 45 0
19 28 37 46 0
20 29 38 47 0
21 30 39 48 0
22 31 40 49 0
23 32 41 50 0
24 33 42 51 0
25 34 43 52 0
26 35 44 53 0
27 36 45 54 0
28 37 46 55 0
29 38 47 56 0
30 39 48 57 0
31 40 49 58 0
32 41 50 59 0
33 42 51 60 0
34 43 52 61 0
35 44 53 62 0
36 45 54 63 0
37 46 55 64 0
38 47 56 65 0
39 48 57 66 0
40 49 58 67 0
41 50 59 68 0
42 51 60 69 0
43 52 61 70 0
44 53 62 71 0
1 11 21 31 0
2 12 22 32 0
3 13 23 33 0
4 14 24 34 0
5 15 25 35 0
6 16 26 36 0
7 17 27 37 0
8 18 28 38 0
9 19 29 39 0
10 20 30 40 0
11 21 31 41 0
12 22 32 42 0
13 23 33 43 0
14 24 34 44 0
15 25 35 45 0
16 26 36 46 0
17 27 37 47 0
18 28 38 48 0
19 29 39 49 0
20 30 40 50 0
21 31 41 51 0
22 32 42 52 0
23 33 43 53 0
24 34 44 54 0
25 35 45 55 0
26 36 46 56 0
27 37 47 57 0
28 38 48 58 0
29 39 49 59 0
30 40 50 60 0
31 41 51 61 0
32 42 52 62 0
33 43 53 63 0
34 44 54 64 0
35 45 55 65 0
36 46 56 66 0
37 47 57 67 0
38 48 58 68 0
39 49 59 69 0
40 50 60 70 0
41 51 61 71 0
1 12 23 34 0
2 13 24 35 0
3 14 25 36 0
4 15 26 37 0
5 16 27 38 0
6 17 28 39 0
7 18 29 40 0
8 19 30 41 0
9 20 31 42 0
10 21 32 43 0
11 22 33 44 0
12 23 34 45 0
13 24 35 46 0
14 25 36 47 0
15 26 37 48 0
16 27 38 49 0
17 28 39 50 0
18 29 40 51 0
19 30 41 52 0
20 31 42 53 0
21 32 43 54 0
22 33 44 55 0
23 34 45 56 0
24 35 46 57 0
25 36 47 58 0
26 37 48 59 0
27 38 49 60 0
28 39 50 61 0
29 40 51 62 0
30 41 52 63 0
31 42 53 64 0
32 43 54 65 0
33 44 55 66 0
34 45 56 67 0
35 46 57 68 0
36 47 58 69 0
37 48 59 70 0
38 49 60 71 0
1 13 25 37 0
2 14 26 38 0
3 15 27 39 0
4 16 28 40 0
5 17 29 41 0
6 18 30 42 0
7 19 31 43 0
8 20 32 44 0
9 21 33 45 0
10 22 34 46 0
11 23 35 47 0
12 24 36 48 0
13 25 37 49 0
14 26 38 50 0
15 27 39 51 0
16 28 40 52 0
17 29 41 53 0
18 30 42 54 0
19 31 43 55 0
20 32 44 56 0
21 33 45 57 0
22 34 46 58 0
23 35 47 59 0
24 36 48 60 0
25 37 49 61 0
26 38 50 62 0
27 39 51 63 0
28 40 52 64 0
29 41 53 65 0
30 42 54 66 0
31 43 55 67 0
32 44 56 68 0
33 45 57 69 0
34 46 58 70 0
35 47 59 71 0
1 14 27 40 0
2 15 28 41 0
3 16 29 42 0
4 17 30 43 0
5 18 31 44 0
6 19 32 45 0
7 20 33 46 0
8 21 34 47 0
9 22 35 48 0
10 23 36 49 0
11 24 37 50 0
12 25 38 51 0
13 26 39 52 0
14 27 40 53 0
15 28 41 54 0
16 29 42 55 0
17 30 43 56 0
18 31 44 57 0
19 32 45 58 0
20 33 46 59 0
21 34 47 60 0
22 35 48 61 0
23 36 49 62 0
24 37 50 63 0
25 38 51 64 0
26 39 52 65 0
27 40 53 66 0
28 41 54 67 0
29 42 55 68 0
30 43 56 69 0
31 44 57 70 0
32 45 58 71 0
1 15 29 43 0
2 16 30 44 0
3 17 31 45 0
4 18 32 46 0
5 19 33 47 0
6 20 34 48 0
7 21 35 49 0
8 22 36 50 0
9 23 37 51 0
10 24 38 52 0
11 25 39 53 0
12 26 40 54 0
13 27 41 55 0
14 28 42 56 0
15 29 43 57 0
16 30 44 58 0
17 31 45 59 0
18 32 46 60 0
19 33 47 61 0
20 34 48 62 0
21 35 49 63 0
22 36 50 64 0
23 37 51 65 0
24 38 52 66 0
25 39 53 67 0
26 40 54 68 0
27 41 55 69 0
28 42 56 70 0
29 43 57 71 0
1 16 31 46 0
2 17 32 47 0
3 18 33 48 0
4 19 34 49 0
5 20 35 50 0
6 21 36 51 0
7 22 37 52 0
8 23 38 53 0
9 24 39 54 0
10 25 40 55 0
11 26 41 56 0
12 27 42 57 0
13 28 43 58 0
14 29 44 59 0
15 30 45 60 0
16 31 46 61 0
17 32 47 62 0
18 33 48 63 0
19 34 49 64 0
20 35 50 65 0
21 36 51 66 0
22 37 52 67 0
23 38 53 68 0
24 39 54 69 0
25 40 55 70 0
26 41 56 71 0
1 17 33 49 0
2 18 34 50 0
3 19 35 51 0
4 20 36 52 0
5 21 37 53 0
6 22 38 54 0
7 23 39 55 0
8 24 40 56 0
9 25 41 57 0
10 26 42 58 0
11 27 43 59 0
12 28 44 60 0
13 29 45 61 0
14 30 46 62 0
15 31 47 63 0
16 32 48 64 0
17 33 49 65 0
18 34 50 66 0
19 35 51 67 0
20 36 52 68 0
21 37 53 69 0
22 38 54 70 0
23 39 55 71 0
1 18 35 52 0
2 19 36 53 0
3 20 37 54 0
4 21 38 55 0
5 22 39 56 0
6 23 40 57 0
7 24 41 58 0
8 25 42 59 0
9 26 43 60 0
10 27 44 61 0
11 28 45 62 0
12 29 46 63 0
13 30 47 64 0
14 31 48 65 0
15 32 49 66 0
16 33 50 67 0
17 34 51 68 0
18 35 52 69 0
19 36 53 70 0
20 37 54 71 0
1 19 37 55 0
2 20 38 56 0
3 21 39 57 0
4 22 40 58 0
5 23 41 59 0
6 24 42 60 0
7 25 43 61 0
8 26 44 62 0
9 27 45 63 0
10 28 46 64 0
11 29 47 65 0
12 30 48 66 0
13 31 49 67 0
14 32 50 68 0
15 33 51 69 0
16 34 52 70 0
17 35 53 71 0
1 20 39 58 0
2 21 40 59 0
3 22 41 60 0
4 23 42 61 0
5 24 43 62 0
6 25 44 63 0
7 26 45 64 0
8 27 46 65 0
9 28 47 66 0
10 29 48 67 0
11 30 49 68 0
12 31 50 69 0
13 32 51 70 0
14 33 52 71 0
1 21 41 61 0
2 22 42 62 0
3 23 43 63 0
4 24 44 64 0
5 25 45 65 0
6 26 46 66 0
7 27 47 67 0
8 28 48 68 0
9 29 49 69 0
10 30 50 70 0
11 31 51 71 0
1 22 43 64 0
2 23 44 65 0
3 24 45 66 0
4 25 46 67 0
5 26 47 68 0
6 27 48 69 0
7 28 49 70 0
8 29 50 71 0
1 23 45 67 0
2 24 46 68 0
3 25 47 69 0
4 26 48 70 0
5 27 49 71 0
1 24 47 70 0
2 25 48 71 0
-1 -2 -3 -4 -5 -6 0
-2 -3 -4 -5 -6 -7 0
-3 -4 -5 -6 -7 -8 0
-4 -5 -6 -7 -8 -9 0
-5 -6 -7 -8 -9 -10 0
-6 -7 -8 -9 -10 -11 0
-7 -8 -9 -10 -11 -12 0
-8 -9 -10 -11 -12 -13 0
-9 -10 -11 -12 -13 -14 0
-10 -11 -12 -13 -14 -15 0
-11 -12 -13 -14 -15 -16 0
-12 -13 -14 -15 -16 -17 0
-13 -14 -15 -16 -17 -18 0
-14 -15 -16 -17 -18 -19 0
-15 -16 -17 -18 -19 -20 0
-16 -17 -18 -19 -20 -21 0
-17 -18 -19 -20 -21 -22 0
-18 -19 -20 -21 -22 -23 0
-19 -20 -21 -22 -23 -24 0
-20 -21 -22 -23 -24 -25 0
-21 -22 -23 -24 -25 -26 0
-22 -23 -24 -25 -26 -27 0
-23 -24 -25 -26 -27 -28 0
-24 -25 -26 -27 -28 -29 0
-25 -26 -27 -28 -29 -30 0
-26 -27 -28 -29 -30 -31 0
-27 -28 -29 -30 -31 -32 0
-28 -29 -30 -31 -32 -33 0
-29 -30 -31 -32 -33 -34 0
-30 -31 -32 -33 -34 -35 0
-31 -32 -33 -34 -35 -36 0
-32 -33 -34 -35 -36 -37 0
-33 -34 -35 -36 -37 -38 0
-34 -35 -36 -37 -38 -39 0
-35 -36 -37 -38 -39 -40 0
-36 -37 -38 -39 -40 -41 0
-37 -38 -39 -40 -41 -42 0
-38 -39 -40 -41 -42 -43 0
-39 -40 -41 -42 -43 -44 0
-40 -41 -42 -43 -44 -45 0
-41 -42 -43 -44 -45 -46 0
-42 -43 -44 -45 -46 -47 0
-43 -44 -45 -46 -47 -48 0
-44 -45 -46 -47 -48 -49 0
-45 -46 -47 -48 -49 -50 0
-46 -47 -48 -49 -50 -51 0
-47 -48 -49 -50 -51 -52 0
-48 -49 -50 -51 -52 -53 0
-49 -50 -51 -52 -53 -54 0
-50 -51 -52 -53 -54 -55 0
-51 -52 -53 -54 -55 -56 0
-52 -53 -54 -55 -56 -57 0
-53 -54 -55 -56 -57 -58 0
-54 -55 -56 -57 -58 -59 0
-55 -56 -57 -58 -59 -60 0
-56 -57 -58 -59 -60 -61 0
-57 -58 -59 -60 -61 -62 0
-58 -59 -60 -61 -62 -63 0
-59 -60 -61 -62 -63 -64 0
-60 -61 -62 -63 -64 -65 0
-61 -62 -63 -64 -65 -66 0
-62 -63 -64 -65 -66 -67 0
-63 -64 -65 -66 -67 -68 0
-64 -65 -66 -67 -68 -69 0
-65 -66 -67 -68 -69 -70 0
-66 -67 -68 -69 -70 -71 0
-1 -3 -5 -7 -9 -11 0
-2 -4 -6 -8 -10 -12 0
-3 -5 -7 -9 -11 -13 0
-4 -6 -8 -10 -12 -14 0
-5 -7 -9 -11 -13 -15 0
-6 -8 -10 -12 -14 -16 0
-7 -9 -11 -13 -15 -17 0
-8 -10 -12 -14 -16 -18 0
-9 -11 -13 -15 -17 -19 0
-10 -12 -14 -16 -18 -20 0
-11 -13 -15 -17 -19 -21 0
-12 -14 -16 -18 -20 -22 0
-13 -15 -17 -19 -21 -23 0
-14 -16 -18 -20 -22 -24 0
-15 -17 -19 -21 -23 -25 0
-16 -18 -20 -22 -24 -26 0
-17 -19 -21 -23 -25 -27 0
-18 -20 -22 -24 -26 -28 0
-19 -21 -23 -25 -27 -29 0
-20 -22 -24 -26 -28 -30 0
-21 -23 -25 -27 -29 -31 0
-22 -24 -26 -28 -30 -32 0
-23 -25 -27 -29 -31 -33 0
-24 -26 -28 -30 -32 -34 0
-25 -27 -29 -31 -33 -35 0
-26 -28 -30 -32 -34 -36 0
-27 -29 -31 -33 -35 -37 0
-28 -30 -32 -34 -36 -38 0
-29 -31 -33 -35 -37 -39 0
-30 -32 -34 -36 -38 -40 0
-31 -33 -35 -37 -39 -41 0
-32 -34 -36 -38 -40 -42 0
-33 -35 -37 -39 -41 -43 0
-34 -36 -38 -40 -42 -44 0
-35 -37 -39 -41 -43 -45 0
-36 -38 -40 -42 -44 -46 0
-37 -39 -41 -43 -45 -47 0
-38 -40 -42 -44 -46 -48 0
-39 -41 -43 -45 -47 -49 0
-40 -42 -44 -46 -48 -50 0
-41 -43 -45 -47 -49 -51 0
-42 -44 -46 -48 -50 -52 0
-43 -45 -47 -49 -51 -53 0
-44 -46 -48 -50 -52 -54 0
-45 -47 -49 -51 -53 -55 0
-46 -48 -50 -52 -54 -56 0
-47 -49 -51 -53 -55 -57 0
-48 -50 -52 -54 -56 -58 0
-49 -51 -53 -55 -57 -59 0
-50 -52 -54 -56 -58 -60 0
-51 -53 -55 -57 -59 -61 0
-52 -54 -56 -58 -60 -62 0
-53 -55 -57 -59 -61 -63 0
-54 -56 -58 -60 -62 -64 0
-55 -57 -59 -61 -63 -65 0
-56 -58 -60 -62 -64 -66 0
-57 -59 -61 -63 -65 -67 0
-58 -60 -62 -64 -66 -68 0
-59 -61 -63 -65 -67 -69 0
-60 -62 -64 -66 -68 -70 0
-61 -63 -65 -67 -69 -71 0
-1 -4 -7 -10 -13 -16 0
-2 -5 -8 -11 -14 -17 0
-3 -6 -9 -12 -15 -18 0
-4 -7 -10 -13 -16 -19 0
-5 -8 -11 -14 -17 -20 0
-6 -9 -12 -15 -18 -21 0
-7 -10 -13 -16 -19 -22 0
-8 -11 -14 -17 -20 -23 0
-9 -12 -15 -18 -21 -24 0
-10 -13 -16 -19 -22 -25 0
-11 -14 -17 -20 -23 -26 0
-12 -15 -18 -21 -24 -27 0
-13 -16 -19 -22 -25 -28 0
-14 -17 -20 -23 -26 -29 0
-15 -18 -21 -24 -27 -30 0
-16 -19 -22 -25 -28 -31 0
-17 -20 -23 -26 -29 -32 0
-18 -21 -24 -27 -30 -33 0
-19 -22 -25 -28 -31 -34 0
-20 -23 -26 -29 -32 -35 0
-21 -24 -27 -30 -33 -36 0
-22 -25 -28 -31 -34 -37 0
-23 -26 -29 -32 -35 -38 0
-24 -27 -30 -33 -36 -39 0
-25 -28 -31 -34 -37 -40 0
-26 -29 -32 -35 -38 -41 0
-27 -30 -33 -36 -39 -42 0
-28 -31 -34 -37 -40 -43 0
-29 -32 -35 -38 -41 -44 0
-30 -33 -36 -39 -42 -45 0
-31 -34 -37 -40 -43 -46 0
-32 -35 -38 -41 -44 -47 0
-33 -36 -39 -42 -45 -48 0
-34 -37 -40 -43 -46 -49 0
-35 -38 -41 -44 -47 -50 0
-36 -39 -42 -45 -48 -51 0
-37 -40 -43 -46 -49 -52 0
-38 -41 -44 -47 -50 -53 0
-39 -42 -45 -48 -51 -54 0
-40 -43 -46 -49 -52 -55 0
-41 -44 -47 -50 -53 -56 0
-42 -45 -48 -51 -54 -57 0
-43 -46 -49 -52 -55 -58 0
-44 -47 -50 -53 -56 -59 0
-45 -48 -51 -54 -57 -60 0
-46 -49 -52 -55 -58 -61 0
-47 -50 -53 -56 -59 -62 0
-48 -51 -54 -57 -60 -63 0
-49 -52 -55 -58 -61 -64 0
-50 -53 -56 -59 -62 -65 0
-51 -54 -57 -60 -63 -66 0
-52 -55 -58 -61 -64 -67 0
-53 -56 -59 -62 -65 -68 0
-54 -57 -60 -63 -66 -69 0
-55 -58 -61 -64 -67 -70 0
-56 -59 -62 -65 -68 -71 0
-1 -5 -9 -13 -17 -21 0
-2 -6 -10 -14 -18 -22 0
-3 -7 -11 -15 -19 -23 0
-4 -8 -12 -16 -20 -24 0
-5 -9 -13 -17 -21 -25 0
-6 -10 -14 -18 -22 -26 0
-7 -11 -15 -19 -23 -27 0
-8 -12 -16 -20 -24 -28 0
-9 -13 -17 -21 -25 -29 0
-10 -14 -18 -22 -26 -30 0
-11 -15 -19 -23 -27 -31 0
-12 -16 -20 -24 -28 -32 0
-13 -17 -21 -25 -29 -33 0
-14 -18 -22 -26 -30 -34 0
-15 -19 -23 -27 -31 -35 0
-16 -20 -24 -28 -32 -36 0
-17 -21 -25 -29 -33 -37 0
-18 -22 -26 -30 -34 -38 0
-19 -23 -27 -31 -35 -39 0
-20 -24 -28 -32 -36 -40 0
-21 -25 -29 -33 -37 -41 0
-22 -26 -30 -34 -38 -42 0
-23 -27 -31 -35 -39 -43 0
-24 -28 -32 -36 -40 -44 0
-25 -29 -33 -37 -41 -45 0
-26 -30 -34 -38 -42 -46 0
-27 -31 -35 -39 -43 -47 0
-28 -32 -36 -40 -44 -48 0
-29 -33 -37 -41 -45 -49 0
-30 -34 -38 -42 -46 -50 0
-31 -35 -39 -43 -47 -51 0
-32 -36 -40 -44 -48 -52 0
-33 -37 -41 -45 -49 -53 0
-34 -38 -42 -46 -50 -54 0
-35 -39 -43 -47 -51 -55 0
-36 -40 -44 -48 -52 -56 0
-37 -41 -45 -49 -53 -57 0
-38 -42 -46 -50 -54 -58 0
-39 -43 -47 -51 -55 -59 0
-40 -44 -48 -52 -56 -60 0
-41 -45 -49 -53 -57 -61 0
-42 -46 -50 -54 -58 -62 0
-43 -47 -51 -55 -59 -63 0
-44 -48 -52 -56 -60 -64 0
-45 -49 -53 -57 -61 -65 0
-46 -50 -54 -58 -62 -66 0
-47 -51 -55 -59 -63 -67 0
-48 -52 -56 -60 -64 -68 0
-49 -53 -57 -61 -65 -69 0
-50 -54 -58 -62 -66 -70 0
-51 -55 -59 -63 -67 -71 0
-1 -6 -11 -16 -21 -26 0
-2 -7 -12 -17 -22 -27 0
-3 -8 -13 -18 -23 -28 0
-4 -9 -14 -19 -24 -29 0
-5 -10 -15 -20 -25 -30 0
-6 -11 -16 -21 -26 -31 0
-7 -12 -17 -22 -27 -32 0
-8 -13 -18 -23 -28 -33 0
-9 -14 -19 -24 -29 -34 0
-10 -15 -20 -25 -30 -35 0
-11 -16 -21 -26 -31 -36 0
-12 -17 -22 -27 -32 -37 0
-13 -18 -23 -28 -33 -38 0
-14 -19 -24 -29 -34 -39 0
-15 -20 -25 -30 -35 -40 0
-16 -21 -26 -31 -36 -41 0
-17 -22 -27 -32 -37 -42 0
-18 -23 -28 -33 -38 -43 0
-19 -24 -29 -34 -39 -44 0
-20 -25 -30 -35 -40 -45 0
-21 -26 -31 -36 -41 -46 0
-22 -27 -32 -37 -42 -47 0
-23 -28 -33 -38 -43 -48 0
-24 -29 -34 -39 -44 -49 0
-25 -30 -35 -40 -45 -50 0
-26 -31 -36 -41 -46 -51 0
-27 -32 -37 -42 -47 -52 0
-28 -33 -38 -43 -48 -53 0
-29 -34 -39 -44 -49 -54 0
-30 -35 -40 -45 -50 -55 0
-31 -36 -41 -46 -51 -56 0
-32 -37 -42 -47 -52 -57 0
-33 -38 -43 -48 -53 -58 0
-34 -39 -44 -49 -54 -59 0
-35 -40 -45 -50 -55 -60 0
-36 -41 -46 -51 -56 -61 0
-37 -42 -47 -52 -57 -62 0
-38 -43 -48 -53 -58 -63 0
-39 -44 -49 -54 -59 -64 0
-40 -45 -50 -55 -60 -65 0
-41 -46 -51 -56 -61 -66 0
-42 -47 -52 -57 -62 -67 0
-43 -48 -53 -58 -63 -68 0
-44 -49 -54 -59 -64 -69 0
-45 -50 -55 -60 -65 -70 0
-46 -51 -56 -61 -66 -71 0
-1 -7 -13 -19 -25 -31 0
-2 -8 -14 -20 -26 -32 0
-3 -9 -15 -21 -27 -33 0
-4 -10 -16 -22 -28 -34 0
-5 -11 -17 -23 -29 -35 0
-6 -12 -18 -24 -30 -36 0
-7 -13 -19 -25 -31 -37 0
-8 -14 -20 -26 -32 -38 0
-9 -15 -21 -27 -33 -39 0
-10 -16 -22 -28 -34 -40 0
-11 -17 -23 -29 -35 -41 0
-12 -18 -24 -30 -36 -42 0
-13 -19 -25 -31 -37 -43 0
-14 -20 -26 -32 -38 -44 0
-15 -21 -27 -33 -39 -45 0
-16 -22 -28 -34 -40 -46 0
-17 -23 -29 -35 -41 -47 0
-18 -24 -30 -36 -42 -48 0
-19 -25 -31 -37 -43 -49 0
-20 -26 -32 -38 -44 -50 0
-21 -27 -33 -39 -45 -51 0
-22 -28 -34 -40 -46 -52 0
-23 -29 -35 -41 -47 -53 0
-24 -30 -36 -42 -48 -54 0
-25 -31 -37 -43 -49 -55 0
-26 -32 -38 -44 -50 -56 0
-27 -33 -39 -45 -51 -57 0
-28 -34 -40 -46 -52 -58 0
-29 -35 -41 -47 -53 -59 0
-30 -36 -42 -48 -54 -60 0
-31 -37 -43 -49 -55 -61 0
-32 -38 -44 -50 -56 -62 0
-33 -39 -45 -51 -57 -63 0
-34 -40 -46 -52 -58 -64 0
-35 -41 -47 -53 -59 -65 0
-36 -42 -48 -54 -60 -66 0
-37 -43 -49 -55 -61 -67 0
-38 -44 -50 -56 -62 -68 0
-39 -45 -51 -57 -63 -69 0
-40 -46 -52 -58 -64 -70 0
-41 -47 -53 -59 -65 -71 0
-1 -8 -15 -22 -29 -36 0
-2 -9 -16 -23 -30 -37 0
-3 -10 -17 -24 -31 -38 0
-4 -11 -18 -25 -32 -39 0
-5 -12 -19 -26 -33 -40 0
-6 -13 -20 -27 -34 -41 0
-7 -14 -21 -28 -35 -42 0
-8 -15 -22 -29 -36 -43 0
-9 -16 -23 -30 -37 -44 0
-10 -17 -24 -31 -38 -45 0
-11 -18 -25 -32 -39 -46 0
-12 -19 -26 -33 -40 -47 0
-13 -20 -27 -34 -41 -48 0
-14 -21 -28 -35 -42 -49 0
-15 -22 -29 -36 -43 -50 0
-16 -23 -30 -37 -44 -51 0
-17 -24 -31 -38 -45 -52 0
-18 -25 -32 -39 -46 -53 0
-19 -26 -33 -40 -47 -54 0
-20 -27 -34 -41 -48 -55 0
-21 -28 -35 -42 -49 -56 0
-22 -29 -36 -43 -50 -57 0
-23 -30 -37 -44 -51 -58 0
-24 -31 -38 -45 -52 -59 0
-25 -32 -39 -46 -53 -60 0
-26 -33 -40 -47 -54 -61 0
-27 -34 -41 -48 -55 -62 0
-28 -35 -42 -49 -56 -63 0
-29 -36 -43 -50 -57 -64 0
-30 -37 -44 -51 -58 -65 0
-31 -38 -45 -52 -59 -66 0
-32 -39 -46 -53 -60 -67 0
-33 -40 -47 -54 -61 -68 0
-34 -41 -48 -55 -62 -69 0
-35 -42 -49 -56 -63 -70 0
-36 -43 -50 -57 -64 -71 0
-1 -9 -17 -25 -33 -41 0
-2 -10 -18 -26 -34 -42 0
-3 -11 -19 -27 -35 -43 0
-4 -12 -20 -28 -36 -44 0
-5 -13 -21 -29 -37 -45 0
-6 -14 -22 -30 -38 -46 0
-7 -15 -23 -31 -39 -47 0
-8 -16 -24 -32 -40 -48 0
-9 -17 -25 -33 -41 -49 0
-10 -18 -26 -34 -42 -50 0
-11 -19 -27 -35 -43 -51 0
-12 -20 -28 -36 -44 -52 0
-13 -21 -29 -37 -45 -53 0
-14 -22 -30 -38 -46 -54 0
-15 -23 -31 -39 -47 -55 0
-16 -24 -32 -40 -48 -56 0
-17 -25 -33 -41 -49 -57 0
-18 -26 -34 -42 -50 -58 0
-19 -27 -35 -43 -51 -59 0
-20 -28 -36 -44 -52 -60 0
-21 -29 -37 -45 -53 -61 0
-22 -30 -38 -46 -54 -62 0
-23 -31 -39 -47 -55 -63 0
-24 -32 -40 -48 -56 -64 0
-25 -33 -41 -49 -57 -65 0
-26 -34 -42 -50 -58 -66 0
-27 -35 -43 -51 -59 -67 0
-28 -36 -44 -52 -60 -68 0
-29 -37 -45 -53 -61 -69 0
-30 -38 -46 -54 -62 -70 0
-31 -39 -47 -55 -63 -71 0
-1 -10 -19 -28 -37 -46 0
-2 -11 -20 -29 -38 -47 0
-3 -12 -21 -30 -39 -48 0
-4 -13 -22 -31 -40 -49 0
-5 -14 -23 -32 -41 -50 0
-6 -15 -24 -33 -42 -51 0
-7 -16 -25 -34 -43 -52 0
-8 -17 -26 -35 -44 -53 0
-9 -18 -27 -36 -45 -54 0
-10 -19 -28 -37 -46 -55 0
-11 -20 -29 -38 -47 -56 0
-12 -21 -30 -39 -48 -57 0
-13 -22 -31 -40 -49 -58 0
-14 -23 -32 -41 -50 -59 0
-15 -24 -33 -42 -51 -60 0
-16 -25 -34 -43 -52 -61 0
-17 -26 -35 -44 -53 -62 0
-18 -27 -36 -45 -54 -63 0
-19 -28 -37 -46 -55 -64 0
-20 -29 -38 -47 -56 -65 0
-21 -30 -39 -48 -57 -66 0
-22 -31 -40 -49 -58 -67 0
-23 -32 -41 -50 -59 -68 0
-24 -33 -42 -51 -60 -69 0
-25 -34 -43 -52 -61 -70 0
-26 -35 -44 -53 -62 -71 0
-1 -11 -21 -31 -41 -51 0
-2 -12 -22 -32 -42 -52 0
-3 -13 -23 -33 -43 -53 0
-4 -14 -24 -34 -44 -54 0
-5 -15 -25 -35 -45 -55 0
-6 -16 -26 -36 -46 -56 0
-7 -17 -27 -37 -47 -57 0
-8 -18 -28 -38 -48 -58 0
-9 -19 -29 -39 -49 -59 0
-10 -20 -30 -40 -50 -60 0
-11 -21 -31 -41 -51 -61 0
-12 -22 -32 -42 -52 -62 0
-13 -23 -33 -43 -53 -63 0
-14 -24 -34 -44 -54 -64 0
-15 -25 -35 -45 -55 -65 0
-16 -26 -36 -46 -56 -66 0
-17 -27 -37 -47 -57 -67 0
-18 -28 -38 -48 -58 -68 0
-19 -29 -39 -49 -59 -69 0
-20 -30 -40 -50 -60 -70 0
-21 -31 -41 -51 -61 -71 0
-1 -12 -23 -34 -45 -56 0
-2 -13 -24 -35 -46 -57 0
-3 -14 -25 -36 -47 -58 0
-4 -15 -26 -37 -48 -59 0
-5 -16 -27 -38 -49 -60 0
-6 -17 -28 -39 -50 -61 0
-7 -18 -29 -40 -51 -62 0
-8 -19 -30 -41 -52 -63 0
-9 -20 -31 -42 -53 -64 0
-10 -21 -32 -43 -54 -65 0
-11 -22 -33 -44 -55 -66 0
-12 -23 -34 -45 -56 -67 0
-13 -24 -35 -46 -57 -68 0
-14 -25 -36 -47 -58 -69 0
-15 -26 -37 -48 -59 -70 0
-16 -27 -38 -49 -60 -71 0
-1 -13 -25 -37 -49 -61 0
-2 -14 -26 -38 -50 -62 0
-3 -15 -27 -39 -51 -63 0
-4 -16 -28 -40 -52 -64 0
-5 -17 -29 -41 -53 -65 0
-6 -18 -30 -42 -54 -66 0
-7 -19 -31 -43 -55 -67 0
-8 -20 -32 -44 -56 -68 0
-9 -21 -33 -45 -57 -69 0
-10 -22 -34 -46 -58 -70 0
-11 -23 -35 -47 -59 -71 0
-1 -14 -27 -40 -53 -66 0
-2 -15 -28 -41 -54 -67 0
-3 -16 -29 -42 -55 -68 0
-4 -17 -30 -43 -56 -69 0
-5 -18 -31 -44 -57 -70 0
-6 -19 -32 -45 -58 -71 0
-1 -15 -29 -43 -57 -71 0
